200 200
20 120
29 23
46 16
3 16
38 54
64 54
46 7
3 7
21 35
8 35
49 42
38 11
64 11
21 7
8 7
42 49
36 49
72 34
30 34
72 21
30 21
42 6
36 6
20 80
5 22
24 22
26 51
125 58
5 29
10 25
14 25
10 4
14 4
29 7
10 3
16 3
10 4
16 4
33 9
22 9
70 12
36 6
10 3
9 3
10 3
9 3
36 6
19 6
13 5
12 5
3 5
5 5
22 13
70 10
34 5
21 5
13 3
12 3
3 3
5 3
25 5
8 5
34 5
21 5
